c Result of efficient AIG-to-CNF conversion using package CNF
p cnf 361 1301
-2 3 153 183 254 0
2 -254 0
2 -3 0
2 -183 0
2 -153 0
-3 4 124 126 137 0
-3 -4 -124 126 137 0
3 -137 0
3 -4 124 0
3 -126 0
3 4 -124 0
4 5 -118 -123 0
4 5 118 -120 0
-4 -5 0
-4 -118 123 0
-4 118 120 0
-5 6 22 0
5 -6 0
5 -22 0
6 -7 10 0
-6 7 0
-6 -10 0
7 358 -8 0
-7 -358 0
-7 8 0
8 359 -9 0
8 -329 -359 360 0
-8 359 9 0
-8 -359 -360 0
-8 329 -359 0
9 -333 360 0
9 -331 -360 0
-9 333 360 0
-9 331 -360 0
-10 11 12 18 21 0
10 -21 0
10 -11 0
10 -18 0
10 -12 0
-11 341 342 343 0
11 -341 0
11 -343 0
11 -342 0
-12 13 15 16 0
12 -13 0
12 -15 0
12 -16 0
-13 344 345 346 14 0
13 -14 0
13 -346 0
13 -344 0
13 -345 0
-14 335 336 337 0
14 -335 0
14 -337 0
14 -336 0
-15 354 355 356 357 0
15 -357 0
15 -356 0
15 -354 0
15 -355 0
-16 349 350 17 0
16 -17 0
16 -350 0
16 -349 0
-17 351 352 353 0
17 -351 0
17 -353 0
17 -352 0
-18 333 334 19 20 0
18 -333 0
18 -20 0
18 -19 0
18 -334 0
-19 338 339 340 0
19 -338 0
19 -340 0
19 -339 0
-20 330 331 332 0
20 -330 0
20 -332 0
20 -331 0
-21 347 348 0
21 -347 0
21 -348 0
-22 23 40 54 0
22 -23 0
22 -40 0
22 -54 0
-23 24 29 0
23 -24 0
23 -29 0
24 10 -25 0
-24 -10 0
-24 25 0
25 -358 -8 0
25 358 -26 0
-25 358 26 0
-25 -358 8 0
26 359 -27 0
26 -359 -28 0
-26 -359 28 0
-26 359 27 0
27 -341 360 0
27 -339 -360 0
-27 341 360 0
-27 339 -360 0
28 -337 360 0
28 -335 -360 0
-28 337 360 0
-28 335 -360 0
29 10 -30 0
29 10 -35 0
-29 -10 0
-29 30 35 0
30 358 -31 0
30 -358 359 -34 0
-30 -358 -359 0
-30 358 31 0
-30 -358 34 0
31 359 -32 0
31 -359 -33 0
-31 -359 33 0
-31 359 32 0
32 -340 360 0
32 -338 -360 0
-32 340 360 0
-32 338 -360 0
33 -336 360 0
33 -334 -360 0
-33 336 360 0
-33 334 -360 0
34 -332 360 0
34 -330 -360 0
-34 332 360 0
-34 330 -360 0
35 358 -36 0
35 -358 -39 0
-35 -358 39 0
-35 358 36 0
36 359 -37 0
36 -359 -38 0
-36 -359 38 0
-36 359 37 0
37 -339 360 0
37 -337 -360 0
-37 339 360 0
-37 337 -360 0
38 -335 360 0
38 -333 -360 0
-38 335 360 0
-38 333 -360 0
39 -329 359 -360 0
39 -331 359 360 0
-39 -359 0
-39 329 -360 0
-39 331 360 0
-40 41 50 0
40 -41 0
40 -50 0
41 10 -42 0
41 10 -45 0
-41 -10 0
-41 42 45 0
42 358 -43 0
42 -358 -44 0
-42 -358 44 0
-42 358 43 0
43 -359 -9 0
43 359 -28 0
-43 359 28 0
-43 -359 9 0
44 -329 359 360 0
-44 329 0
-44 -360 0
-44 -359 0
45 358 -46 0
45 -358 -49 0
-45 -358 49 0
-45 358 46 0
46 359 -47 0
46 -359 -48 0
-46 -359 48 0
-46 359 47 0
47 -338 360 0
47 -336 -360 0
-47 338 360 0
-47 336 -360 0
48 -334 360 0
48 -332 -360 0
-48 334 360 0
-48 332 -360 0
49 -330 359 360 0
-49 330 0
-49 -360 0
-49 -359 0
50 10 -51 0
-50 -10 0
-50 51 0
51 358 -52 0
-51 -358 0
-51 52 0
52 359 -38 0
52 -359 -53 0
-52 -359 53 0
-52 359 38 0
53 -331 360 0
53 -329 -360 0
-53 331 360 0
-53 329 -360 0
-54 55 91 108 111 0
54 -91 0
54 -111 0
54 -55 0
54 -108 0
-55 56 77 0
55 -56 0
55 -77 0
56 357 -57 68 0
56 -357 68 -75 0
-56 -68 0
-56 -357 75 0
-56 357 57 0
57 -358 -64 0
57 358 -58 0
57 -358 -66 0
-57 358 58 0
-57 -358 64 66 0
-58 -359 59 63 0
-58 359 59 62 0
58 -59 0
58 -359 -63 0
58 359 -62 0
59 359 -60 0
59 -359 -61 0
-59 -359 61 0
-59 359 60 0
60 -352 360 0
60 -350 -360 0
-60 352 360 0
-60 350 -360 0
61 -348 360 0
61 -346 -360 0
-61 348 360 0
-61 346 -360 0
62 -353 360 0
62 -351 -360 0
-62 353 360 0
-62 351 -360 0
63 -349 360 0
63 -347 -360 0
-63 349 360 0
-63 347 -360 0
64 -359 -32 0
64 359 -65 0
-64 359 65 0
-64 -359 32 0
65 -344 360 0
65 -342 -360 0
-65 344 360 0
-65 342 -360 0
66 -359 -27 0
66 359 -67 0
-66 359 67 0
-66 -359 27 0
67 -345 360 0
67 -343 -360 0
-67 345 360 0
-67 343 -360 0
-68 344 11 69 70 0
68 -344 0
68 -70 0
68 -69 0
68 -11 0
-69 354 355 356 0
69 -354 0
69 -356 0
69 -355 0
-70 16 21 71 0
70 -16 0
70 -21 0
70 -71 0
-71 345 346 72 73 0
71 -345 0
71 -73 0
71 -72 0
71 -346 0
-72 335 336 337 19 0
72 -19 0
72 -337 0
72 -335 0
72 -336 0
-73 332 333 334 74 0
73 -74 0
73 -334 0
73 -332 0
73 -333 0
-74 330 331 0
74 -330 0
74 -331 0
-75 42 76 0
75 -42 0
75 -76 0
76 358 -359 -34 0
76 358 359 -33 0
-76 -358 0
-76 -359 34 0
-76 359 33 0
77 357 68 -79 0
77 -357 68 -78 0
-77 -68 0
-77 357 79 0
-77 -357 78 0
-78 35 45 0
78 -35 0
78 -45 0
-79 358 86 0
-79 -358 80 83 0
79 -358 -80 0
79 358 -86 0
79 -358 -83 0
80 359 -81 0
80 -359 -82 0
-80 -359 82 0
-80 359 81 0
81 -346 360 0
81 -344 -360 0
-81 346 360 0
-81 344 -360 0
82 -342 360 0
82 -340 -360 0
-82 342 360 0
-82 340 -360 0
83 359 -84 0
83 -359 -85 0
-83 -359 85 0
-83 359 84 0
84 -347 360 0
84 -345 -360 0
-84 347 360 0
-84 345 -360 0
85 -343 360 0
85 -341 -360 0
-85 343 360 0
-85 341 -360 0
-86 359 89 0
-86 -359 87 88 0
86 -359 -87 0
86 359 -89 0
86 -359 -88 0
87 -350 360 0
87 -348 -360 0
-87 350 360 0
-87 348 -360 0
88 -351 360 0
88 -349 -360 0
-88 351 360 0
-88 349 -360 0
-89 354 360 90 0
-89 352 -360 90 0
89 -90 0
89 -354 360 0
89 -352 -360 0
90 -355 360 0
90 -353 -360 0
-90 355 360 0
-90 353 -360 0
-91 -68 0
-91 92 -105 0
-91 92 107 0
91 68 -92 0
91 68 105 -107 0
-92 -95 96 0
-92 93 94 96 0
92 -96 0
92 -94 95 0
92 -93 95 0
-93 357 358 0
93 -357 0
93 -358 0
94 359 -63 0
94 -359 -67 0
-94 -359 67 0
-94 359 63 0
-95 357 358 0
-95 -7 -26 0
-95 357 -26 0
-95 358 -7 0
95 -357 7 0
95 -358 26 0
-96 98 101 0
-96 -358 97 101 0
96 -101 0
96 -97 -98 0
96 358 -98 0
97 -359 -47 0
97 359 -82 0
-97 359 82 0
-97 -359 47 0
98 357 -100 0
98 -357 358 -99 0
98 357 -358 0
-98 -357 -358 0
-98 -357 99 0
-98 357 358 100 0
99 359 -48 0
99 -330 -359 360 0
-99 359 48 0
-99 -359 -360 0
-99 330 -359 0
100 -359 -81 0
100 359 -87 0
-100 359 87 0
-100 -359 81 0
101 -102 103 0
101 -93 103 0
-101 -103 0
-101 93 102 0
102 -359 -84 0
102 359 -88 0
-102 359 88 0
-102 -359 84 0
-103 357 358 0
-103 -51 -104 0
-103 357 -104 0
-103 358 -51 0
103 -357 51 0
103 -358 104 0
104 -359 -37 0
104 359 -85 0
-104 359 85 0
-104 -359 37 0
105 -357 106 0
-105 357 0
-105 -106 0
106 358 -39 0
-106 -358 0
-106 39 0
107 -358 -36 0
107 -357 358 0
107 358 -83 0
-107 -358 36 0
-107 357 358 83 0
108 10 -109 0
108 10 -110 0
-108 -10 0
-108 109 110 0
109 358 -97 0
109 -358 -99 0
-109 -358 99 0
-109 358 97 0
110 -358 -52 0
110 358 -104 0
-110 358 104 0
-110 -358 52 0
111 358 112 -116 0
111 -43 112 -116 0
-111 116 0
-111 -112 0
-111 -358 43 0
-112 357 113 114 0
-112 113 114 -115 0
112 -114 0
112 -113 0
112 -357 115 0
-113 16 19 74 21 0
113 -21 0
113 -16 0
113 -74 0
113 -19 0
-114 354 355 356 11 0
114 -11 0
114 -356 0
114 -354 0
114 -355 0
115 -329 358 359 360 0
-115 -360 0
-115 -359 0
-115 329 0
-115 -358 0
116 -66 117 0
116 -93 117 0
-116 -117 0
-116 66 93 0
-117 332 333 334 13 0
117 -13 0
117 -334 0
117 -332 0
117 -333 0
118 357 68 -119 0
118 -357 -25 68 0
-118 -68 0
-118 357 119 0
-118 -357 25 0
-119 -358 94 0
-119 358 62 0
-119 358 359 0
119 -358 -94 0
119 358 -359 -62 0
120 -304 -121 0
120 -302 121 0
-120 302 121 0
-120 304 -121 0
121 357 68 -122 0
121 -357 68 -110 0
-121 -68 0
-121 357 122 0
-121 -357 110 0
-122 -358 102 0
-122 358 90 0
-122 358 359 0
122 -358 -102 0
122 358 -359 -90 0
123 -312 -121 0
123 -310 121 0
-123 310 121 0
-123 312 -121 0
124 5 118 -125 0
-124 -5 0
-124 -118 0
-124 125 0
125 -302 121 0
125 -300 -121 0
-125 302 121 0
-125 300 -121 0
-126 127 130 -132 -135 0
-126 -127 -130 -132 -135 0
-126 127 130 132 135 0
-126 -127 -130 132 135 0
126 127 -130 0
126 -127 130 0
126 132 -135 0
126 -132 135 0
127 5 -118 -129 0
127 5 118 -128 0
-127 -5 0
-127 -118 129 0
-127 118 128 0
128 -302 -121 0
128 -300 121 0
-128 300 121 0
-128 302 -121 0
129 -310 -121 0
129 -308 121 0
-129 308 121 0
-129 310 -121 0
130 5 118 -131 0
-130 -5 0
-130 -118 0
-130 131 0
131 -300 121 0
131 -298 -121 0
-131 300 121 0
-131 298 -121 0
132 5 -118 -134 0
132 5 118 -133 0
-132 -5 0
-132 -118 134 0
-132 118 133 0
133 -306 -121 0
133 -304 121 0
-133 304 121 0
-133 306 -121 0
134 -314 -121 0
134 -312 121 0
-134 312 121 0
-134 314 -121 0
135 5 118 -136 0
-135 -5 0
-135 -118 0
-135 136 0
136 -304 121 0
136 -302 -121 0
-136 304 121 0
-136 302 -121 0
-137 138 142 -148 -151 0
-137 138 142 148 151 0
137 -142 0
137 148 -151 0
137 -138 0
137 -148 151 0
-138 118 139 0
-138 139 140 141 0
138 -139 0
138 -118 -141 0
138 -118 -140 0
-139 121 0
-139 299 300 0
139 -300 -121 0
139 -299 -121 0
140 -308 -121 0
140 -306 121 0
-140 306 121 0
-140 308 -121 0
141 -307 -121 0
141 -305 121 0
-141 305 121 0
-141 307 -121 0
-142 -143 -146 0
-142 143 146 0
142 143 -146 0
142 -143 146 0
143 5 -118 -145 0
143 5 118 -144 0
-143 -5 0
-143 -118 145 0
-143 118 144 0
144 -305 -121 0
144 -303 121 0
-144 303 121 0
-144 305 -121 0
145 -313 -121 0
145 -311 121 0
-145 311 121 0
-145 313 -121 0
146 5 118 -147 0
-146 -5 0
-146 -118 0
-146 147 0
147 -303 121 0
147 -301 -121 0
-147 303 121 0
-147 301 -121 0
148 5 -118 -150 0
148 5 118 -149 0
-148 -5 0
-148 -118 150 0
-148 118 149 0
149 -303 -121 0
149 -301 121 0
-149 301 121 0
-149 303 -121 0
150 -311 -121 0
150 -309 121 0
-150 309 121 0
-150 311 -121 0
151 5 118 -152 0
-151 -5 0
-151 -118 0
-151 152 0
152 -301 121 0
152 -299 -121 0
-152 301 121 0
-152 299 -121 0
-153 154 156 159 164 0
-153 -154 -156 159 164 0
153 -159 0
153 154 -156 0
153 -164 0
153 -154 156 0
154 22 -118 -155 0
154 22 118 -141 0
-154 -22 0
-154 -118 155 0
-154 118 141 0
155 -315 -121 0
155 -313 121 0
-155 313 121 0
-155 315 -121 0
156 22 -118 -158 0
156 22 118 -157 0
-156 -22 0
-156 -118 158 0
-156 118 157 0
157 -305 121 0
157 -303 -121 0
-157 305 121 0
-157 303 -121 0
158 -297 121 0
-158 297 0
-158 -121 0
159 -160 162 0
-159 160 0
-159 -162 0
160 22 -118 -161 0
160 22 118 -129 0
-160 -22 0
-160 -118 161 0
-160 118 129 0
161 -318 -121 0
161 -316 121 0
-161 316 121 0
-161 318 -121 0
162 22 118 -163 0
162 22 -118 -131 0
-162 -22 0
-162 -118 131 0
-162 118 163 0
163 -308 121 0
163 -306 -121 0
-163 308 121 0
-163 306 -121 0
-164 -160 165 174 0
-164 162 165 174 0
164 -174 0
164 -165 0
164 160 -162 0
-165 -166 172 0
-165 168 -170 0
-165 168 172 0
-165 -166 -170 0
165 166 -168 0
165 170 -172 0
166 22 -118 -167 0
166 22 118 -134 0
-166 -22 0
-166 -118 167 0
-166 118 134 0
167 -322 -121 0
167 -320 121 0
-167 320 121 0
-167 322 -121 0
168 22 118 -169 0
168 22 -118 -136 0
-168 -22 0
-168 -118 136 0
-168 118 169 0
169 -312 121 0
169 -310 -121 0
-169 312 121 0
-169 310 -121 0
170 22 -118 -171 0
170 22 118 -150 0
-170 -22 0
-170 -118 171 0
-170 118 150 0
171 -319 -121 0
171 -317 121 0
-171 317 121 0
-171 319 -121 0
172 22 118 -173 0
172 22 -118 -152 0
-172 -22 0
-172 -118 152 0
-172 118 173 0
173 -309 121 0
173 -307 -121 0
-173 309 121 0
-173 307 -121 0
-174 -175 181 0
-174 177 -179 0
-174 177 181 0
-174 -175 -179 0
174 175 -177 0
174 179 -181 0
175 22 -118 -176 0
175 22 118 -145 0
-175 -22 0
-175 -118 176 0
-175 118 145 0
176 -321 -121 0
176 -319 121 0
-176 319 121 0
-176 321 -121 0
177 22 118 -178 0
177 22 -118 -147 0
-177 -22 0
-177 -118 147 0
-177 118 178 0
178 -311 121 0
178 -309 -121 0
-178 311 121 0
-178 309 -121 0
179 22 -118 -180 0
179 22 118 -123 0
-179 -22 0
-179 -118 180 0
-179 118 123 0
180 -320 -121 0
180 -318 121 0
-180 318 121 0
-180 320 -121 0
181 22 118 -182 0
181 22 -118 -125 0
-181 -22 0
-181 -118 125 0
-181 118 182 0
182 -310 121 0
182 -308 -121 0
-182 310 121 0
-182 308 -121 0
-183 184 238 244 247 0
183 -247 0
183 -184 0
183 -244 0
183 -238 0
-184 185 192 200 0
-184 -188 192 200 0
184 -200 0
184 -192 0
184 -185 188 0
185 22 -118 -187 0
185 22 118 -186 0
-185 -22 0
-185 -118 187 0
-185 118 186 0
186 -301 -121 0
186 -299 121 0
-186 299 121 0
-186 301 -121 0
187 -309 -121 0
187 -307 121 0
-187 307 121 0
-187 309 -121 0
188 40 77 189 -190 0
-188 190 0
-188 -40 0
-188 -189 0
-188 -77 0
-189 23 108 111 0
189 -23 0
189 -111 0
189 -108 0
190 56 91 118 -191 0
-190 -91 0
-190 -118 0
-190 -56 0
-190 191 0
191 -299 121 0
191 -297 -121 0
-191 299 121 0
-191 297 -121 0
192 -193 196 0
192 -193 -195 0
-192 193 0
-192 195 -196 0
193 22 118 -194 0
193 22 -118 -157 0
-193 -22 0
-193 -118 157 0
-193 118 194 0
194 -313 121 0
194 -311 -121 0
-194 313 121 0
-194 311 -121 0
-195 50 91 108 0
195 -50 0
195 -91 0
195 -108 0
196 118 -155 198 0
196 -118 -197 198 0
-196 -198 0
-196 -118 197 0
-196 118 155 0
197 -323 -121 0
197 -321 121 0
-197 321 121 0
-197 323 -121 0
-198 29 41 111 199 0
198 -199 0
198 -111 0
198 -29 0
198 -41 0
-199 24 55 0
199 -24 0
199 -55 0
200 195 -227 0
200 195 -201 0
200 195 -220 0
-200 -195 0
-200 201 220 227 0
-201 202 211 -216 0
-201 202 211 218 0
201 -202 0
201 -211 0
201 216 -218 0
-202 -203 209 0
-202 205 -207 0
-202 205 209 0
-202 -203 -207 0
202 203 -205 0
202 207 -209 0
203 22 118 -204 0
203 22 -118 -123 0
-203 -22 0
-203 -118 123 0
-203 118 204 0
204 -318 121 0
204 -316 -121 0
-204 318 121 0
-204 316 -121 0
205 118 -180 198 0
205 -118 198 -206 0
-205 -198 0
-205 -118 206 0
-205 118 180 0
206 -328 -121 0
206 -326 121 0
-206 326 121 0
-206 328 -121 0
207 22 118 -208 0
207 22 -118 -163 0
-207 -22 0
-207 -118 163 0
-207 118 208 0
208 -316 121 0
208 -314 -121 0
-208 316 121 0
-208 314 -121 0
209 118 -161 198 0
209 -118 198 -210 0
-209 -198 0
-209 -118 210 0
-209 118 161 0
210 -326 -121 0
210 -324 121 0
-210 324 121 0
-210 326 -121 0
211 212 -214 0
-211 -212 0
-211 214 0
212 22 118 -213 0
212 22 -118 -134 0
-212 -22 0
-212 -118 134 0
-212 118 213 0
213 -320 121 0
213 -318 -121 0
-213 320 121 0
-213 318 -121 0
214 118 -167 198 0
214 -118 198 -215 0
-214 -198 0
-214 -118 215 0
-214 118 167 0
215 -328 121 0
-215 328 0
-215 -121 0
216 22 118 -217 0
216 22 -118 -150 0
-216 -22 0
-216 -118 150 0
-216 118 217 0
217 -317 121 0
217 -315 -121 0
-217 317 121 0
-217 315 -121 0
218 118 -171 198 0
218 -118 198 -219 0
-218 -198 0
-218 -118 219 0
-218 118 171 0
219 -327 -121 0
219 -325 121 0
-219 325 121 0
-219 327 -121 0
-220 -193 224 0
-220 196 -221 0
-220 196 224 0
-220 -193 -221 0
220 193 -196 0
220 221 -224 0
221 22 118 -223 0
221 22 -118 -222 0
-221 -22 0
-221 -118 222 0
-221 118 223 0
222 -306 121 0
222 -304 -121 0
-222 306 121 0
-222 304 -121 0
223 -314 121 0
223 -312 -121 0
-223 314 121 0
-223 312 -121 0
224 -118 198 -226 0
224 118 198 -225 0
-224 -198 0
-224 -118 226 0
-224 118 225 0
225 -316 -121 0
225 -314 121 0
-225 314 121 0
-225 316 -121 0
226 -324 -121 0
226 -322 121 0
-226 322 121 0
-226 324 -121 0
-227 -228 236 0
-227 231 -234 0
-227 231 236 0
-227 -228 -234 0
227 228 -231 0
227 234 -236 0
228 22 118 -230 0
228 22 -118 -229 0
-228 -22 0
-228 -118 229 0
-228 118 230 0
229 -307 121 0
229 -305 -121 0
-229 307 121 0
-229 305 -121 0
230 -315 121 0
230 -313 -121 0
-230 315 121 0
-230 313 -121 0
231 -118 198 -233 0
231 118 198 -232 0
-231 -198 0
-231 -118 233 0
-231 118 232 0
232 -317 -121 0
232 -315 121 0
-232 315 121 0
-232 317 -121 0
233 -325 -121 0
233 -323 121 0
-233 323 121 0
-233 325 -121 0
234 22 118 -235 0
234 22 -118 -145 0
-234 -22 0
-234 -118 145 0
-234 118 235 0
235 -319 121 0
235 -317 -121 0
-235 319 121 0
-235 317 -121 0
236 118 -176 198 0
236 -118 198 -237 0
-236 -198 0
-236 -118 237 0
-236 118 176 0
237 -327 121 0
-237 327 0
-237 -121 0
-238 203 239 243 0
-238 -205 239 243 0
238 -243 0
238 -239 0
238 -203 205 0
-239 179 -240 -241 0
-239 -181 240 241 0
-239 179 240 241 0
-239 -181 -240 -241 0
239 240 -241 0
239 -240 241 0
239 -179 181 0
240 22 -118 -225 0
240 22 118 -140 0
-240 -22 0
-240 -118 225 0
-240 118 140 0
241 22 118 -222 0
241 22 -118 -242 0
-241 -22 0
-241 -118 242 0
-241 118 222 0
242 -298 121 0
-242 298 0
-242 -121 0
-243 -177 216 0
-243 175 -218 0
-243 175 216 0
-243 -177 -218 0
243 -175 177 0
243 -216 218 0
-244 228 -245 -246 0
-244 -231 245 246 0
-244 228 245 246 0
-244 -231 -245 -246 0
244 245 -246 0
244 -245 246 0
244 -228 231 0
245 22 -118 -232 0
245 22 118 -187 0
-245 -22 0
-245 -118 232 0
-245 118 187 0
246 22 118 -229 0
246 22 -118 -191 0
-246 -22 0
-246 -118 191 0
-246 118 229 0
-247 188 248 249 0
-247 -185 248 249 0
247 -249 0
247 -248 0
247 185 -188 0
248 -195 -221 0
248 -221 224 0
-248 221 0
-248 195 -224 0
-249 170 250 251 0
-249 -172 250 251 0
249 -251 0
249 -250 0
249 -170 172 0
250 -166 168 0
-250 166 0
-250 -168 0
-251 207 252 0
-251 195 -209 252 0
251 -252 0
251 -207 209 0
251 -195 -207 0
-252 234 253 0
-252 195 -236 253 0
252 -253 0
252 -234 236 0
252 -195 -234 0
253 -195 -212 0
253 -212 214 0
-253 212 0
-253 195 -214 0
-254 255 268 269 286 0
-254 -255 -268 269 286 0
254 -286 0
254 -255 268 0
254 -269 0
254 255 -268 0
255 118 256 -267 0
255 -118 -155 256 0
-255 -256 0
-255 -118 155 0
-255 118 267 0
-256 6 22 257 0
256 -257 0
256 -22 0
256 -6 0
-257 -71 263 0
-257 258 263 0
-257 -17 263 0
257 -263 0
257 17 71 -258 0
258 344 11 259 -260 0
-258 -344 0
-258 260 0
-258 -259 0
-258 -11 0
-259 349 350 15 21 0
259 -349 0
259 -21 0
259 -15 0
259 -350 0
-260 -358 0
-260 -359 0
-260 261 262 0
260 358 359 -262 0
260 358 359 -261 0
261 -329 360 0
-261 329 0
-261 -360 0
262 -330 360 0
-262 330 0
-262 -360 0
263 17 20 264 -266 0
-263 266 0
-263 -17 0
-263 -264 0
-263 -20 0
-264 333 334 265 72 0
264 -333 0
264 -72 0
264 -265 0
264 -334 0
-265 344 345 346 0
265 -344 0
265 -346 0
265 -345 0
266 11 -106 259 0
-266 -11 0
-266 106 0
-266 -259 0
267 -321 121 0
267 -319 -121 0
-267 321 121 0
-267 319 -121 0
268 118 -197 256 0
-268 -256 0
-268 197 0
-268 -118 0
-269 270 272 276 279 0
-269 -270 -272 276 279 0
269 -276 0
269 270 -272 0
269 -279 0
269 -270 272 0
270 22 118 -226 271 0
-270 -271 0
-270 -22 0
-270 226 0
-270 -118 0
-271 6 263 0
271 -6 0
271 -263 0
272 22 271 -273 0
-272 -22 0
-272 -271 0
-272 273 0
-273 118 -274 0
-273 -118 225 0
-273 118 275 0
273 -118 -225 0
273 118 274 -275 0
274 320 -121 0
-274 -320 0
-274 121 0
-275 322 121 0
275 -322 0
275 -121 0
276 5 -118 -277 0
276 5 215 -277 0
-276 -5 0
-276 277 0
-276 118 -215 0
-277 -118 167 0
-277 118 278 0
277 -118 -167 0
277 118 -278 0
-278 328 121 0
-278 326 -121 0
278 -328 121 0
278 -326 -121 0
-279 280 -283 -284 0
-279 280 283 284 0
279 -280 0
279 -283 284 0
279 283 -284 0
280 5 -118 -281 0
280 5 237 -281 0
-280 -5 0
-280 281 0
-280 118 -237 0
-281 -118 176 0
-281 118 282 0
281 -118 -176 0
281 118 -282 0
-282 327 121 0
-282 325 -121 0
282 -327 121 0
282 -325 -121 0
283 5 118 -206 0
-283 -5 0
-283 -118 0
-283 206 0
284 5 118 -285 0
284 5 -118 -180 0
-284 -5 0
-284 -118 180 0
-284 118 285 0
-285 326 121 0
-285 324 -121 0
285 -326 121 0
285 -324 -121 0
-286 -287 -288 290 0
-286 287 288 290 0
286 -290 0
286 -287 288 0
286 287 -288 0
287 118 -233 256 0
-287 -256 0
-287 233 0
-287 -118 0
288 118 256 -289 0
288 -118 -232 256 0
-288 -256 0
-288 -118 232 0
-288 118 289 0
289 -323 121 0
289 -321 -121 0
-289 323 121 0
-289 321 -121 0
-290 291 293 -294 -296 0
-290 -291 -293 -294 -296 0
-290 291 293 294 296 0
-290 -291 -293 294 296 0
290 291 -293 0
290 -291 293 0
290 294 -296 0
290 -294 296 0
291 118 256 -292 0
291 -118 -161 256 0
-291 -256 0
-291 -118 161 0
-291 118 292 0
292 -324 121 0
292 -322 -121 0
-292 324 121 0
-292 322 -121 0
293 118 -210 256 0
-293 -256 0
-293 210 0
-293 -118 0
294 118 256 -295 0
294 -118 -171 256 0
-294 -256 0
-294 118 295 0
-294 -118 171 0
-295 325 121 0
-295 323 -121 0
295 -325 121 0
295 -323 -121 0
296 5 118 -219 257 0
-296 -257 0
-296 -5 0
-296 219 0
-296 -118 0
-361 0
2 0

